BAYES
5
2 2 2 2 2 
5
2 4 0   # light-on
1 1 # bowel-problem
3 4 1 2  # dog-out
2 2 3  # hear-bark
1 4  # family-out


4
  0.6 0.4 
  0.05 0.95 

2
  0.01 0.99 

8
  0.99 0.01 
  0.97 0.03 
  0.9 0.1 
  0.3 0.7 

4
  0.7 0.3 
  0.01 0.99 

2
  0.15 0.85 


